n_res = 4;
rc = [ 17, 16, 16, 21 ];
n_tasks = 30;
d = [ 5, 6, 3, 4, 1, 6, 7, 9, 7, 5, 10, 7, 1, 4, 1, 9, 4, 10, 3, 7, 6, 4, 9, 2, 3, 10, 2, 3, 2, 9 ];
rr = [| 4, 2, 10, 0, 0, 0, 0, 0, 0, 5, 0, 9, 0, 0, 7, 8, 1, 0, 10, 0, 0, 0, 3, 0, 0, 2, 0, 0, 0, 0
      | 0, 0, 0, 5, 0, 0, 0, 3, 5, 0, 2, 9, 9, 2, 0, 0, 2, 6, 0, 9, 7, 0, 5, 3, 8, 9, 8, 0, 0, 4
      | 7, 5, 7, 0, 0, 0, 0, 0, 0, 0, 7, 0, 0, 6, 0, 7, 0, 9, 4, 7, 0, 0, 0, 7, 5, 7, 0, 0, 0, 7
      | 0, 0, 0, 7, 7, 3, 9, 0, 9, 1, 0, 0, 0, 10, 6, 2, 2, 1, 0, 10, 3, 8, 8, 0, 6, 0, 9, 10, 3, 8 |];
suc = [ { 2 }, 
        { 1 }, 
        { 4 }, 
        { 3 }, 
        { 6 }, 
        { 5 }, 
        { 8 }, 
        { 7 }, 
        { 10 }, 
        { 9 }, 
        { 12 }, 
        { 11 }, 
        { 14 }, 
        { 13 }, 
        { 16 }, 
        { 15 }, 
        { 18 }, 
        { 17 }, 
        { 20 }, 
        { 19 }, 
        { 22 }, 
        { 21 }, 
        { 24 }, 
        { 23 }, 
        { 26 }, 
        { 25 }, 
        { 28 }, 
        { 27 }, 
        { 30 }, 
        { 29 }]; 
